language ESSENCE' 1.0

letting jobs = 102
letting horizon = 791
letting resourcesRenew = 2
letting resourcesNonrenew = 2
letting resourceLimits = [54, 51, 326, 265]
letting successors = [[2, 3, 4, 5, 6, 7, 8, 9, 11, 12, 13, 14, 15, 16, 18, 19, 22, 26, 30, 34], [42, 40, 37, 25, 10], [50, 47, 45, 41, 40, 38, 37, 36, 29, 27, 23], [59, 45, 42, 41, 36, 35, 29, 28, 24, 20], [45, 42, 40, 33, 31, 29, 28, 23, 21], [55, 45, 39, 38, 33, 24, 17], [59, 46, 45, 38, 37, 36, 33, 31, 28, 23], [55, 50, 48, 45, 41, 37, 35, 28, 17], [59, 54, 45, 40, 37, 36, 33, 24, 23], [41, 33, 32, 28, 27, 23, 21], [49, 45, 43, 40, 35, 33, 28, 27], [85, 55, 48, 46, 45, 43, 36, 35, 33, 29], [59, 48, 45, 41, 37, 36, 33, 25], [101, 85, 59, 55, 51, 49, 48, 46, 44, 43, 37, 33], [62, 61, 59, 58, 55, 50, 49, 48, 47, 44, 42, 28], [101, 78, 62, 55, 54, 50, 48, 46, 43, 41, 39, 35], [62, 59, 54, 46, 43, 40, 36, 29], [85, 60, 56, 55, 50, 49, 48, 45, 43, 41, 40, 37], [64, 58, 55, 49, 40, 35, 28], [55, 51, 49, 48, 44, 37, 33], [85, 79, 76, 67, 63, 61, 60, 59, 58, 57, 56, 55, 52, 50, 48, 47], [101, 85, 79, 63, 62, 59, 53, 48, 43, 37], [78, 62, 61, 58, 56, 55, 48, 43, 35], [101, 79, 78, 76, 67, 66, 62, 60, 58, 56, 52, 51, 48], [101, 79, 67, 64, 63, 62, 54, 51, 50, 43], [76, 66, 63, 56, 55, 54, 53, 48, 37], [101, 78, 76, 66, 65, 61, 59, 58, 57, 56, 54, 53, 48], [83, 82, 79, 78, 77, 76, 67, 66, 60, 57, 56, 54, 52, 51], [101, 84, 83, 82, 79, 78, 76, 66, 64, 58, 56, 51, 49], [101, 85, 63, 61, 59, 56, 35], [84, 83, 79, 78, 76, 74, 72, 71, 67, 65, 64, 63, 60, 56, 54, 50], [101, 85, 83, 79, 78, 75, 68, 67, 64, 59, 56, 53, 52, 50], [79, 78, 76, 68, 62, 61, 60, 56, 52, 50, 47], [84, 82, 78, 76, 64, 61, 60, 58, 56, 49, 47], [93, 82, 75, 70, 67, 66, 53, 44], [101, 82, 78, 60, 57, 53, 44], [93, 83, 82, 78, 71, 70, 68, 67, 64, 58, 52], [83, 82, 79, 76, 75, 63, 60, 56, 53, 52], [83, 82, 76, 72, 71, 68, 65, 64, 61, 60, 58, 56], [101, 93, 92, 91, 84, 78, 76, 75, 69, 68, 66, 63, 61, 53], [92, 82, 79, 76, 67, 63, 53, 52], [101, 92, 91, 82, 77, 76, 75, 73, 69, 68, 67, 53], [100, 97, 91, 83, 82, 76, 75, 70, 68, 66, 65, 57], [100, 92, 83, 81, 77, 76, 71, 68, 52], [101, 98, 93, 91, 83, 82, 76, 74, 72, 71, 65, 64], [93, 92, 91, 84, 83, 76, 73, 53], [93, 92, 91, 90, 83, 75, 70, 53], [99, 98, 97, 93, 91, 90, 83, 82, 70, 69, 68, 64], [93, 75, 74, 71, 70, 68, 67, 65, 63], [95, 93, 91, 90, 82, 81, 77, 73, 70, 69, 66], [92, 91, 69, 53], [98, 91, 90, 84, 80, 74, 73, 72, 65], [100, 99, 98, 96, 95, 94, 89, 88, 81, 74, 72, 71], [98, 96, 95, 85, 81, 75, 73, 69, 68], [99, 98, 96, 95, 94, 92, 89, 87, 81, 75, 74], [99, 98, 95, 93, 92, 91, 88, 81, 70], [99, 98, 95, 93, 84, 81, 71, 69], [99, 98, 90, 89, 81, 77, 75, 73], [99, 96, 95, 93, 92, 89, 81, 72], [100, 98, 97, 96, 95, 89, 87, 80], [100, 96, 95, 89, 88, 77], [100, 99, 97, 94, 88, 72], [99, 94, 87, 81, 80], [100, 92, 89, 73], [96, 95, 69], [99, 96, 87, 80], [98, 89, 88, 86], [94, 87, 80], [89, 88, 86], [96, 94, 87], [87, 80], [87, 86], [94, 86], [97, 86], [88, 86], [94, 90], [97, 86], [97, 86], [95, 86], [86], [86], [88], [95], [86], [93], [102], [102], [102], [102], [102], [102], [102], [102], [102], [102], [102], [102], [102], [102], [102], [102], []]
letting durations = [[0], [3, 4, 7], [2, 7, 10], [2, 6, 7], [6, 7, 7], [1, 2, 4], [2, 8, 10], [4, 5, 6], [1, 1, 9], [2, 6, 7], [5, 8, 10], [5, 6, 8], [5, 5, 10], [6, 7, 10], [5, 7, 10], [4, 5, 7], [1, 3, 6], [1, 1, 3], [1, 2, 7], [1, 3, 8], [5, 5, 6], [4, 7, 8], [4, 4, 9], [5, 6, 7], [4, 7, 9], [4, 5, 9], [8, 8, 10], [3, 6, 8], [8, 9, 10], [6, 7, 8], [3, 4, 5], [2, 8, 10], [2, 6, 7], [1, 5, 7], [1, 5, 6], [4, 8, 9], [8, 9, 9], [4, 5, 10], [3, 5, 6], [1, 3, 4], [1, 4, 8], [1, 8, 9], [2, 9, 10], [1, 6, 8], [1, 2, 10], [4, 6, 8], [5, 6, 8], [1, 3, 7], [1, 5, 6], [4, 7, 10], [1, 1, 6], [3, 4, 7], [3, 9, 10], [1, 3, 10], [3, 8, 8], [2, 2, 6], [2, 3, 3], [1, 3, 7], [2, 3, 10], [6, 7, 8], [4, 6, 8], [1, 4, 9], [3, 6, 9], [5, 8, 9], [3, 7, 8], [2, 6, 10], [2, 9, 10], [3, 4, 9], [1, 4, 8], [3, 4, 7], [1, 3, 5], [5, 6, 9], [1, 5, 7], [2, 6, 9], [6, 8, 10], [2, 7, 8], [1, 2, 9], [4, 5, 9], [2, 5, 6], [3, 4, 10], [1, 3, 6], [2, 3, 4], [6, 9, 10], [2, 3, 4], [8, 9, 9], [2, 5, 8], [1, 1, 3], [2, 8, 10], [6, 8, 9], [5, 8, 9], [1, 2, 3], [2, 7, 8], [7, 10, 10], [1, 4, 5], [3, 4, 7], [3, 7, 10], [1, 6, 10], [1, 7, 9], [4, 5, 7], [6, 9, 9], [4, 5, 10], [0]]
letting resourceUsage = [[[0, 0, 0, 0]], [[3, 3, 0, 9], [2, 3, 0, 7], [1, 2, 5, 0]], [[4, 3, 9, 0], [4, 2, 9, 0], [3, 1, 9, 0]], [[3, 5, 6, 0], [2, 5, 3, 0], [2, 5, 2, 0]], [[3, 1, 7, 0], [1, 1, 0, 6], [1, 1, 5, 0]], [[3, 5, 4, 0], [2, 5, 0, 5], [2, 5, 2, 0]], [[3, 4, 0, 9], [3, 4, 4, 0], [3, 4, 0, 7]], [[5, 4, 3, 0], [4, 4, 3, 0], [2, 4, 3, 0]], [[1, 1, 8, 0], [1, 1, 0, 4], [1, 1, 5, 0]], [[1, 2, 0, 6], [1, 2, 3, 0], [1, 2, 2, 0]], [[3, 4, 4, 0], [3, 2, 0, 9], [2, 2, 3, 0]], [[2, 2, 0, 8], [1, 1, 5, 0], [1, 1, 0, 7]], [[5, 2, 0, 4], [5, 2, 8, 0], [5, 1, 0, 2]], [[4, 4, 0, 7], [3, 4, 7, 0], [3, 2, 0, 5]], [[5, 3, 9, 0], [3, 2, 0, 9], [3, 2, 7, 0]], [[3, 5, 0, 10], [3, 3, 0, 5], [2, 2, 3, 0]], [[3, 5, 6, 0], [2, 5, 4, 0], [1, 5, 4, 0]], [[3, 3, 0, 7], [2, 3, 8, 0], [1, 2, 0, 6]], [[5, 4, 6, 0], [3, 3, 6, 0], [3, 3, 0, 3]], [[3, 4, 8, 0], [2, 3, 6, 0], [1, 2, 0, 4]], [[2, 4, 9, 0], [2, 4, 0, 6], [2, 4, 0, 5]], [[3, 3, 7, 0], [3, 3, 0, 4], [3, 1, 0, 4]], [[2, 5, 0, 8], [2, 4, 4, 0], [1, 4, 0, 5]], [[4, 2, 0, 5], [4, 1, 7, 0], [3, 1, 3, 0]], [[5, 4, 0, 4], [3, 3, 0, 3], [3, 2, 0, 3]], [[3, 3, 0, 10], [3, 2, 4, 0], [2, 1, 0, 2]], [[5, 5, 7, 0], [5, 3, 0, 7], [5, 2, 0, 7]], [[2, 4, 10, 0], [1, 3, 0, 7], [1, 2, 0, 3]], [[2, 5, 0, 8], [1, 5, 0, 7], [1, 5, 0, 5]], [[5, 4, 2, 0], [4, 3, 2, 0], [4, 3, 0, 6]], [[1, 2, 0, 8], [1, 2, 0, 7], [1, 2, 3, 0]], [[2, 4, 5, 0], [2, 3, 4, 0], [2, 3, 1, 0]], [[3, 4, 0, 4], [3, 3, 0, 2], [2, 3, 8, 0]], [[5, 4, 7, 0], [4, 3, 6, 0], [3, 2, 0, 3]], [[2, 2, 8, 0], [2, 1, 7, 0], [2, 1, 0, 1]], [[5, 3, 5, 0], [3, 2, 0, 8], [3, 2, 0, 7]], [[5, 3, 9, 0], [3, 3, 9, 0], [3, 1, 0, 2]], [[2, 4, 0, 7], [2, 4, 0, 4], [1, 3, 7, 0]], [[3, 5, 4, 0], [2, 3, 4, 0], [1, 2, 3, 0]], [[4, 3, 0, 8], [4, 3, 5, 0], [2, 2, 0, 4]], [[5, 4, 8, 0], [4, 3, 5, 0], [2, 3, 4, 0]], [[3, 4, 0, 10], [2, 4, 0, 7], [2, 2, 5, 0]], [[2, 2, 2, 0], [1, 1, 0, 6], [1, 1, 1, 0]], [[3, 4, 0, 4], [2, 3, 5, 0], [2, 2, 5, 0]], [[5, 5, 0, 3], [3, 3, 3, 0], [3, 3, 2, 0]], [[5, 3, 0, 8], [2, 1, 0, 8], [1, 1, 0, 8]], [[3, 3, 0, 10], [1, 3, 5, 0], [1, 3, 4, 0]], [[2, 1, 8, 0], [1, 1, 8, 0], [1, 1, 6, 0]], [[4, 3, 9, 0], [3, 2, 8, 0], [3, 2, 7, 0]], [[3, 3, 5, 0], [3, 3, 4, 0], [3, 3, 3, 0]], [[3, 4, 0, 8], [2, 4, 3, 0], [2, 4, 0, 3]], [[5, 4, 9, 0], [3, 4, 8, 0], [3, 4, 0, 3]], [[5, 3, 0, 9], [5, 3, 6, 0], [5, 2, 0, 8]], [[1, 4, 10, 0], [1, 4, 7, 0], [1, 3, 0, 6]], [[1, 5, 9, 0], [1, 4, 0, 5], [1, 3, 8, 0]], [[3, 3, 5, 0], [3, 3, 0, 7], [3, 2, 0, 6]], [[2, 5, 5, 0], [2, 3, 0, 8], [2, 3, 2, 0]], [[4, 3, 0, 7], [3, 3, 8, 0], [2, 3, 0, 5]], [[2, 1, 0, 4], [1, 1, 0, 3], [1, 1, 2, 0]], [[3, 4, 7, 0], [2, 3, 7, 0], [2, 3, 6, 0]], [[3, 3, 0, 7], [1, 3, 0, 7], [1, 3, 2, 0]], [[4, 4, 0, 10], [3, 3, 2, 0], [2, 3, 2, 0]], [[3, 3, 6, 0], [2, 3, 6, 0], [2, 2, 6, 0]], [[5, 4, 7, 0], [3, 2, 5, 0], [3, 2, 0, 6]], [[5, 5, 0, 7], [3, 5, 0, 6], [1, 5, 7, 0]], [[4, 3, 0, 8], [3, 3, 0, 5], [2, 2, 0, 4]], [[4, 5, 0, 10], [2, 3, 0, 9], [1, 2, 3, 0]], [[5, 3, 9, 0], [3, 2, 0, 1], [2, 2, 0, 1]], [[2, 3, 2, 0], [1, 3, 0, 4], [1, 3, 2, 0]], [[4, 5, 0, 10], [2, 4, 0, 6], [2, 3, 5, 0]], [[2, 5, 0, 6], [2, 4, 6, 0], [2, 4, 0, 2]], [[5, 3, 9, 0], [5, 2, 7, 0], [5, 2, 2, 0]], [[1, 3, 0, 3], [1, 2, 0, 3], [1, 2, 3, 0]], [[1, 3, 0, 10], [1, 3, 4, 0], [1, 3, 0, 9]], [[2, 3, 10, 0], [1, 3, 0, 10], [1, 3, 0, 9]], [[5, 4, 0, 7], [4, 4, 0, 4], [3, 2, 3, 0]], [[5, 3, 5, 0], [4, 2, 0, 6], [4, 2, 0, 5]], [[3, 4, 0, 6], [2, 4, 6, 0], [2, 3, 4, 0]], [[4, 3, 0, 8], [4, 2, 0, 6], [4, 2, 3, 0]], [[4, 3, 7, 0], [3, 2, 6, 0], [2, 1, 6, 0]], [[3, 4, 0, 8], [3, 3, 7, 0], [3, 3, 6, 0]], [[3, 1, 6, 0], [3, 1, 5, 0], [3, 1, 0, 2]], [[4, 5, 7, 0], [2, 5, 0, 4], [2, 5, 4, 0]], [[5, 4, 0, 3], [3, 3, 0, 2], [3, 1, 0, 1]], [[5, 2, 0, 6], [4, 2, 0, 3], [4, 2, 6, 0]], [[4, 3, 7, 0], [4, 2, 0, 7], [4, 1, 2, 0]], [[3, 3, 7, 0], [3, 2, 0, 6], [1, 2, 0, 5]], [[2, 5, 8, 0], [1, 4, 4, 0], [1, 3, 3, 0]], [[5, 5, 8, 0], [2, 2, 4, 0], [1, 2, 0, 6]], [[3, 2, 8, 0], [3, 2, 5, 0], [3, 2, 4, 0]], [[4, 3, 9, 0], [4, 3, 8, 0], [3, 3, 0, 5]], [[4, 3, 9, 0], [3, 3, 0, 3], [2, 3, 0, 1]], [[5, 1, 8, 0], [4, 1, 0, 6], [3, 1, 3, 0]], [[5, 4, 3, 0], [5, 4, 0, 6], [5, 4, 0, 5]], [[3, 5, 6, 0], [3, 4, 6, 0], [3, 2, 0, 1]], [[2, 3, 10, 0], [2, 2, 0, 2], [1, 2, 4, 0]], [[5, 3, 10, 0], [4, 3, 0, 5], [3, 3, 8, 0]], [[3, 4, 4, 0], [3, 2, 2, 0], [3, 2, 1, 0]], [[4, 2, 0, 6], [3, 1, 5, 0], [1, 1, 4, 0]], [[4, 3, 0, 8], [2, 2, 6, 0], [2, 1, 0, 8]], [[4, 4, 10, 0], [4, 4, 0, 5], [4, 4, 0, 2]], [[0, 0, 0, 0]]]
